
n_res = 4;
rcap = [44, 44, 162, 151];
rtype = [1, 1, 2, 2];
n_tasks = 100;
modes =  [{1, 2, 3}, {4, 5, 6}, {7, 8, 9}, {10, 11, 12}, {13, 14, 15}, {16, 17, 18}, {19, 20, 21}, {22, 23, 24}, {25, 26, 27}, {28, 29, 30}, {31, 32, 33}, {34, 35, 36}, {37, 38, 39}, {40, 41, 42}, {43, 44, 45}, {46, 47, 48}, {49, 50, 51}, {52, 53, 54}, {55, 56, 57}, {58, 59, 60}, {61, 62, 63}, {64, 65, 66}, {67, 68, 69}, {70, 71, 72}, {73, 74, 75}, {76, 77, 78}, {79, 80, 81}, {82, 83, 84}, {85, 86, 87}, {88, 89, 90}, {91, 92, 93}, {94, 95, 96}, {97, 98, 99}, {100, 101, 102}, {103, 104, 105}, {106, 107, 108}, {109, 110, 111}, {112, 113, 114}, {115, 116, 117}, {118, 119, 120}, {121, 122, 123}, {124, 125, 126}, {127, 128, 129}, {130, 131, 132}, {133, 134, 135}, {136, 137, 138}, {139, 140, 141}, {142, 143, 144}, {145, 146, 147}, {148, 149, 150}, {151, 152, 153}, {154, 155, 156}, {157, 158, 159}, {160, 161, 162}, {163, 164, 165}, {166, 167, 168}, {169, 170, 171}, {172, 173, 174}, {175, 176, 177}, {178, 179, 180}, {181, 182, 183}, {184, 185, 186}, {187, 188, 189}, {190, 191, 192}, {193, 194, 195}, {196, 197, 198}, {199, 200, 201}, {202, 203, 204}, {205, 206, 207}, {208, 209, 210}, {211, 212, 213}, {214, 215, 216}, {217, 218, 219}, {220, 221, 222}, {223, 224, 225}, {226, 227, 228}, {229, 230, 231}, {232, 233, 234}, {235, 236, 237}, {238, 239, 240}, {241, 242, 243}, {244, 245, 246}, {247, 248, 249}, {250, 251, 252}, {253, 254, 255}, {256, 257, 258}, {259, 260, 261}, {262, 263, 264}, {265, 266, 267}, {268, 269, 270}, {271, 272, 273}, {274, 275, 276}, {277, 278, 279}, {280, 281, 282}, {283, 284, 285}, {286, 287, 288}, {289, 290, 291}, {292, 293, 294}, {295, 296, 297}, {298, 299, 300}];
succ =  [{57, 50, 49, 48, 45, 44, 43, 40, 38, 36, 35, 32, 27, 24, 23, 21}, {50, 49, 45, 44, 39, 38, 37, 36, 35, 34, 28, 27, 22, 21}, {56, 50, 48, 43, 41, 38, 37, 27, 25, 21, 16}, {57, 47, 44, 43, 42, 38, 37, 35, 31, 27, 26, 25}, {57, 56, 51, 48, 46, 45, 42, 41, 39, 38, 37, 35, 21}, {57, 51, 48, 44, 42, 41, 38, 27, 26, 21}, {68, 46, 42, 41, 36, 33, 25}, {66, 52, 51, 46, 44, 43, 42, 39, 38, 31}, {61, 55, 52, 49, 48, 46, 42, 39, 36, 35}, {67, 55, 53, 52, 50, 48, 44, 39, 36, 34}, {70, 66, 55, 51, 50, 49, 47, 45, 38, 29}, {70, 68, 66, 57, 52, 48, 42, 32, 31}, {70, 60, 55, 48, 36, 33, 29}, {61, 56, 52, 48, 46, 44, 42, 39, 35}, {70, 58, 48, 46, 44, 42, 41, 34}, {68, 61, 58, 57, 55, 54, 51, 49, 46, 44, 42}, {66, 61, 56, 55, 53, 48, 44, 42, 39}, {85, 70, 67, 65, 61, 57, 55, 54, 52, 51, 50, 46, 45, 38}, {85, 70, 67, 66, 58, 54, 52, 46, 44, 43, 38}, {68, 58, 55, 51, 46, 45, 42, 33}, {85, 81, 70, 68, 67, 66, 64, 62, 61, 60, 58, 55, 53, 52, 47}, {81, 76, 70, 68, 67, 66, 62, 60, 58, 55, 53, 52, 51, 48}, {70, 68, 66, 64, 62, 60, 58, 55, 52, 46, 37}, {71, 68, 66, 65, 64, 60, 59, 58, 56, 46, 42}, {81, 67, 66, 62, 61, 60, 55, 53, 51, 39}, {85, 81, 76, 70, 68, 67, 66, 64, 63, 62, 60, 58, 55, 53, 52}, {85, 68, 67, 65, 64, 62, 60, 55, 54, 52, 46}, {82, 81, 76, 72, 71, 70, 69, 68, 67, 65, 64, 63, 62, 61, 60, 59, 57, 54}, {85, 76, 67, 64, 62, 61, 58, 54, 52, 46}, {76, 64, 56, 53, 52, 40}, {82, 69, 58, 49, 41}, {82, 81, 75, 71, 69, 65, 64, 61, 60, 59, 55, 54}, {85, 81, 76, 66, 56, 53, 52}, {100, 85, 81, 80, 76, 75, 71, 68, 64, 62, 61, 59, 54}, {82, 77, 76, 74, 72, 71, 69, 67, 66, 63, 60, 59}, {82, 81, 71, 69, 62, 58, 54, 51}, {85, 81, 77, 76, 71, 67, 53}, {100, 84, 81, 76, 75, 71, 63, 53}, {93, 85, 82, 80, 76, 73, 71, 70, 64, 58, 54}, {100, 84, 82, 81, 77, 75, 74, 71, 62, 55}, {85, 81, 77, 75, 74, 71, 65, 63, 55}, {94, 85, 84, 82, 81, 79, 78, 77, 76, 73, 67, 63, 62}, {100, 84, 81, 77, 75, 74, 64, 63, 55}, {79, 75, 71, 65, 63, 62, 60, 59}, {100, 83, 79, 77, 75, 72, 63, 62, 59}, {83, 81, 77, 63, 53}, {83, 82, 79, 77, 76, 73, 72, 65, 63}, {85, 84, 83, 79, 73, 72, 65, 63}, {85, 84, 81, 79, 75, 74, 64, 62}, {100, 80, 77, 75, 74, 73, 71, 62}, {100, 79, 77, 73, 72, 64, 63}, {99, 80, 79, 75, 71, 59}, {94, 82, 79, 74, 73, 72, 69}, {99, 98, 95, 92, 84, 83, 79, 78, 77, 74}, {99, 98, 92, 89, 83, 79, 73, 72}, {100, 99, 98, 95, 94, 93, 92, 91, 89, 84, 79, 78, 77}, {99, 98, 93, 92, 84, 78, 74, 73}, {99, 98, 97, 95, 91, 89, 83, 79, 78}, {98, 97, 96, 92, 89, 84, 73}, {98, 97, 95, 93, 92, 91, 89, 88, 86, 78}, {98, 97, 95, 93, 90, 89, 88, 83, 78}, {99, 98, 97, 95, 92, 91, 90, 89, 88, 87, 86}, {99, 98, 97, 96, 93, 92, 90, 80}, {99, 95, 92, 91, 89, 88, 86, 78}, {100, 95, 91, 90, 89, 88, 86, 78}, {98, 97, 92, 91, 90, 83, 79}, {100, 97, 96, 91, 89, 75}, {94, 92, 91, 89, 79, 78}, {99, 92, 91, 90, 89, 88, 80}, {99, 96, 95, 92, 91, 77}, {95, 92, 90, 89, 86, 83}, {97, 90, 80, 78}, {95, 91, 90, 88, 87, 86}, {97, 91, 89, 86}, {98, 95, 93, 88}, {99, 96, 89, 88}, {90, 87, 86}, {96, 87}, {88, 86}, {87, 86}, {92, 90}, {92, 89}, {94}, {90}, {86}, {}, {}, {}, {}, {}, {}, {}, {}, {}, {}, {}, {}, {}, {}, {}];
n_opt = 300;
dur = [1, 9, 9, 1, 2, 6, 4, 6, 8, 2, 4, 6, 2, 7, 9, 6, 9, 10, 4, 5, 9, 5, 8, 9, 3, 5, 10, 2, 3, 6, 2, 5, 10, 1, 4, 9, 3, 7, 10, 4, 6, 10, 3, 6, 7, 1, 4, 5, 5, 8, 9, 4, 5, 6, 5, 6, 6, 4, 6, 6, 5, 7, 8, 1, 4, 8, 4, 7, 10, 4, 5, 6, 4, 5, 7, 6, 10, 10, 1, 5, 8, 2, 7, 8, 5, 6, 10, 1, 3, 3, 3, 6, 8, 4, 4, 7, 3, 3, 4, 1, 2, 6, 1, 5, 6, 4, 6, 10, 7, 8, 9, 2, 2, 8, 5, 7, 8, 5, 6, 9, 2, 3, 7, 5, 7, 8, 1, 2, 6, 1, 5, 9, 4, 5, 7, 3, 5, 9, 1, 4, 10, 3, 7, 7, 1, 1, 2, 1, 2, 9, 3, 4, 10, 4, 6, 7, 1, 3, 6, 4, 9, 10, 3, 9, 10, 1, 6, 8, 3, 4, 5, 1, 7, 9, 3, 9, 9, 1, 4, 6, 1, 7, 7, 5, 7, 9, 1, 4, 9, 5, 7, 9, 7, 9, 9, 2, 9, 10, 2, 3, 5, 1, 3, 8, 4, 4, 5, 6, 9, 10, 6, 8, 9, 5, 6, 10, 1, 6, 6, 1, 6, 10, 1, 5, 8, 3, 8, 9, 1, 2, 9, 1, 3, 9, 4, 5, 8, 3, 6, 7, 4, 4, 10, 6, 7, 8, 1, 6, 8, 4, 7, 9, 2, 7, 10, 1, 2, 7, 4, 7, 8, 2, 4, 6, 4, 7, 8, 4, 8, 10, 1, 5, 6, 2, 4, 7, 1, 3, 9, 4, 6, 10, 2, 5, 8, 1, 2, 9, 8, 9, 9, 1, 2, 7, 1, 1, 4, 1, 4, 6];
rreq = [|4, 0, 0, 2, 0, 0, 0, 5, 0, 2, 2, 0, 1, 0, 0, 1, 1, 1, 0, 0, 0, 4, 4, 3, 5, 4, 4, 3, 0, 3, 2, 0, 1, 3, 0, 0, 0, 3, 3, 0, 2, 0, 0, 0, 5, 5, 3, 0, 0, 0, 0, 0, 0, 2, 3, 0, 2, 3, 0, 0, 0, 0, 4, 0, 2, 2, 4, 0, 2, 4, 3, 0, 5, 0, 3, 0, 0, 2, 0, 0, 2, 0, 3, 0, 4, 0, 4, 0, 3, 0, 3, 3, 0, 0, 0, 0, 1, 1, 1, 5, 0, 3, 0, 0, 3, 0, 0, 2, 0, 2, 0, 3, 0, 0, 4, 3, 0, 3, 0, 0, 0, 4, 4, 0, 0, 0, 4, 3, 3, 0, 0, 0, 5, 3, 1, 0, 0, 0, 0, 2, 2, 2, 0, 2, 3, 0, 0, 4, 4, 0, 3, 0, 0, 3, 2, 2, 4, 0, 3, 0, 3, 3, 5, 0, 4, 0, 0, 0, 0, 0, 3, 2, 2, 2, 4, 4, 0, 1, 1, 1, 4, 0, 4, 0, 0, 0, 0, 3, 0, 5, 2, 2, 1, 1, 0, 1, 0, 1, 0, 0, 0, 0, 4, 4, 2, 0, 1, 5, 4, 0, 4, 2, 2, 0, 0, 0, 0, 4, 3, 0, 3, 0, 0, 0, 0, 0, 0, 3, 3, 0, 1, 0, 0, 3, 5, 3, 3, 1, 1, 1, 0, 1, 0, 1, 1, 0, 3, 3, 0, 3, 0, 1, 4, 3, 3, 3, 0, 0, 5, 4, 0, 4, 2, 2, 0, 0, 0, 0, 2, 0, 0, 3, 3, 3, 0, 0, 5, 3, 0, 5, 0, 0, 0, 0, 0, 0, 1, 1, 0, 0, 1, 2, 0, 1, 0, 0, 0, 4, 0, 0
 |0, 1, 1, 0, 4, 4, 5, 0, 3, 0, 0, 1, 0, 2, 2, 0, 0, 0, 1, 1, 1, 0, 0, 0, 0, 0, 0, 0, 5, 0, 0, 4, 0, 0, 3, 1, 5, 0, 0, 3, 0, 2, 5, 5, 0, 0, 0, 3, 5, 4, 4, 3, 3, 0, 0, 3, 0, 0, 3, 3, 3, 3, 0, 1, 0, 0, 0, 1, 0, 0, 0, 1, 0, 3, 0, 4, 3, 0, 1, 1, 0, 4, 0, 4, 0, 3, 0, 5, 0, 4, 0, 0, 2, 5, 4, 4, 0, 0, 0, 0, 5, 0, 3, 2, 0, 4, 3, 0, 4, 0, 2, 0, 2, 2, 0, 0, 3, 0, 3, 2, 5, 0, 0, 1, 1, 1, 0, 0, 0, 3, 2, 2, 0, 0, 0, 5, 3, 3, 4, 0, 0, 0, 2, 0, 0, 4, 4, 0, 0, 2, 0, 3, 3, 0, 0, 0, 0, 3, 0, 3, 0, 0, 0, 3, 0, 3, 2, 1, 3, 2, 0, 0, 0, 0, 0, 0, 2, 0, 0, 0, 0, 4, 0, 2, 2, 1, 3, 0, 3, 0, 0, 0, 0, 0, 2, 0, 2, 0, 3, 2, 1, 5, 0, 0, 0, 3, 0, 0, 0, 3, 0, 0, 0, 2, 2, 2, 4, 0, 0, 5, 0, 2, 1, 1, 1, 3, 3, 0, 0, 4, 0, 4, 3, 0, 0, 0, 0, 0, 0, 0, 3, 0, 1, 0, 0, 2, 0, 0, 3, 0, 2, 0, 0, 0, 0, 0, 4, 4, 0, 0, 1, 0, 0, 0, 3, 3, 2, 3, 0, 2, 5, 0, 0, 0, 1, 1, 0, 0, 3, 0, 3, 2, 4, 4, 4, 3, 0, 0, 5, 4, 0, 0, 2, 0, 1, 1, 1, 0, 2, 2
 |0, 2, 0, 5, 4, 0, 6, 4, 0, 7, 0, 0, 7, 6, 5, 6, 0, 0, 8, 0, 3, 8, 0, 2, 4, 0, 0, 0, 0, 0, 0, 0, 0, 7, 5, 0, 0, 0, 0, 0, 4, 0, 5, 0, 2, 3, 2, 2, 7, 0, 3, 6, 5, 3, 4, 3, 2, 0, 0, 1, 8, 5, 4, 0, 4, 0, 0, 0, 0, 0, 3, 0, 1, 1, 0, 5, 0, 5, 6, 3, 0, 9, 0, 7, 2, 0, 1, 8, 4, 1, 0, 3, 0, 0, 6, 0, 0, 6, 4, 0, 7, 0, 0, 4, 0, 7, 0, 4, 7, 0, 1, 9, 0, 5, 0, 3, 2, 0, 2, 2, 2, 2, 1, 2, 0, 0, 0, 4, 0, 5, 3, 2, 8, 7, 2, 0, 0, 0, 0, 0, 4, 6, 0, 0, 0, 0, 0, 0, 0, 2, 0, 9, 8, 10, 0, 0, 8, 0, 0, 5, 4, 3, 6, 5, 4, 0, 6, 0, 0, 0, 0, 7, 6, 5, 0, 3, 0, 8, 7, 5, 3, 2, 1, 0, 0, 0, 0, 6, 0, 0, 6, 0, 9, 0, 6, 5, 5, 4, 6, 0, 1, 0, 0, 3, 0, 6, 4, 0, 5, 0, 8, 0, 0, 0, 0, 0, 0, 7, 0, 7, 0, 0, 8, 0, 0, 0, 1, 1, 0, 3, 3, 5, 5, 0, 1, 0, 0, 7, 5, 3, 8, 5, 5, 7, 0, 0, 0, 0, 0, 10, 0, 8, 0, 0, 0, 6, 5, 0, 7, 4, 2, 0, 0, 8, 0, 4, 4, 0, 0, 0, 8, 0, 0, 0, 0, 0, 0, 7, 0, 7, 0, 0, 8, 0, 0, 0, 2, 1, 0, 3, 3, 5, 5, 0, 1, 0, 0, 7, 5, 3
 |10, 0, 8, 0, 0, 1, 0, 0, 5, 0, 4, 3, 0, 0, 0, 0, 2, 1, 0, 5, 0, 0, 3, 0, 0, 3, 2, 9, 9, 8, 6, 5, 5, 0, 0, 1, 9, 7, 4, 4, 0, 3, 0, 3, 0, 0, 0, 0, 0, 2, 0, 0, 0, 0, 0, 0, 0, 10, 9, 0, 0, 0, 0, 8, 0, 5, 7, 6, 3, 4, 0, 3, 0, 0, 5, 0, 5, 0, 0, 0, 2, 0, 3, 0, 0, 9, 0, 0, 0, 0, 7, 0, 2, 6, 0, 3, 2, 0, 0, 5, 0, 1, 6, 0, 5, 0, 3, 0, 0, 1, 0, 0, 5, 0, 8, 0, 0, 9, 0, 0, 0, 0, 0, 0, 2, 1, 5, 0, 3, 0, 0, 0, 0, 0, 0, 7, 6, 3, 6, 6, 0, 0, 6, 1, 7, 5, 2, 2, 1, 0, 3, 0, 0, 0, 2, 1, 0, 3, 2, 0, 0, 0, 0, 0, 0, 9, 0, 6, 5, 4, 2, 0, 0, 0, 9, 0, 6, 0, 0, 0, 0, 0, 0, 10, 6, 4, 3, 0, 1, 8, 0, 4, 0, 5, 0, 0, 0, 0, 0, 5, 0, 10, 7, 0, 5, 0, 0, 6, 0, 2, 0, 6, 1, 10, 7, 4, 8, 0, 5, 0, 2, 2, 0, 5, 4, 10, 0, 0, 7, 0, 0, 0, 0, 5, 0, 3, 2, 0, 0, 0, 0, 0, 0, 0, 1, 1, 8, 5, 4, 0, 4, 0, 8, 5, 4, 0, 0, 8, 0, 0, 0, 8, 4, 0, 7, 0, 0, 7, 6, 6, 0, 6, 1, 10, 7, 4, 8, 0, 5, 0, 2, 2, 0, 5, 4, 10, 0, 0, 7, 0, 0, 0, 0, 5, 0, 3, 2, 0, 0, 0|];